0 0 0 0
0 1 0 0
0 2 0 0
0 3 0 2
0 4 0 7
0 5 0 14
0 6 1 8
0 7 0 7
0 8 2 2
0 9 2 10
0 10 0 3
0 11 0 16
0 12 0 16
0 13 0 10
0 14 0 11
0 15 0 19
0 16 0 18
0 17 2 11
0 18 0 19
0 19 0 24
0 20 0 23
0 21 0 27
0 22 0 26
0 23 0 34
0 24 1 25
0 25 0 29
0 26 0 31
0 27 0 24
0 28 0 35
0 29 0 36
0 30 0 26
0 31 0 39
